HUN,8,6,27
3,12,4,23,2,2,1,10,0,19,5,9
4,6,5,20,1,10,3,15,2,19,0,27
4,27,3,19,0,4,5,13,2,18,1,12
0,22,5,18,3,18,1,24,4,15,2,14
2,19,3,17,4,10,1,26,5,26,0,27
4,29,5,10,2,27,1,27,3,11,0,7
4,27,2,24,0,7,3,18,5,9,1,24
4,18,1,13,5,4,3,16,0,18,2,27
